NAME : mtspf.pid3767.gtsp.32112262.tour
COMMENT : Length = 32112262
COMMENT : Found by LKH [Keld Helsgaun] Mon Jan 13 23:00:49 2025
TYPE : TOUR
DIMENSION : 15
TOUR_SECTION
1
2
10
11
8
9
3
15
12
13
14
7
4
5
6
-1
EOF
